p cnf 20 8
a 1 0
e 2 0
a 3 4 5 0
e 6 7 8 0
a 9 10 0
e 11 12 0
a 13 0
e 14 15 0
a 16 0
e 17 18 0
a 19 20 0
-13 6 5 9 -7 0
13 -17 7 0
19 17 -11 2 0
7 -12 -20 19 -8 0
9 7 0
6 15 -19 -20 13 0
-12 -1 -10 0
-18 10 12 -20 4 0
